results_rootrelaxation/bin012_050_041.srr.sol
solution status: optimal solution found
objective value:                                    0
_var37_                              0.13894900661076 	(obj:0)
_var574_                            0.203617148190998 	(obj:0)
_var672_                           0.0603826409433491 	(obj:0)
_var693_                             0.30289819944797 	(obj:0)
_var701_                             0.47378762275905 	(obj:0)
_var705_                           0.0282726149117516 	(obj:0)
_var708_                            0.336129022276698 	(obj:0)
_var712_                            0.227738918522772 	(obj:0)
_var714_                            0.528223050022721 	(obj:0)
_var722_                            0.257878382087419 	(obj:0)
_var724_                            0.451063410396711 	(obj:0)
_var728_                            0.239117641834372 	(obj:0)
_var729_                             0.25319292431126 	(obj:0)
_var730_                            0.466547710932983 	(obj:0)
_var731_                            0.287094735406582 	(obj:0)
_var733_                            0.263219930013231 	(obj:0)
_var736_                            0.193347188582078 	(obj:0)
_var737_                           0.0757385884721784 	(obj:0)
_var739_                            0.298922121239725 	(obj:0)
_var741_                           0.0157702297805322 	(obj:0)
_var745_                            0.177576958801546 	(obj:0)
_var749_                            0.127484332624528 	(obj:0)
_var760_                            0.217778954347008 	(obj:0)
_var762_                            0.203892763354298 	(obj:0)
_var763_                           0.0615212008799052 	(obj:0)
_var764_                            0.157070846849074 	(obj:0)
_var765_                            0.182484169318245 	(obj:0)
_var768_                            0.122142784698716 	(obj:0)
_var770_                            0.178684003490745 	(obj:0)
_var771_                            0.015616091570699 	(obj:0)
_var774_                            0.120031836129882 	(obj:0)
_var777_                            0.163573874891342 	(obj:0)
_var778_                           0.0696017103038316 	(obj:0)
_var779_                             0.23473644944639 	(obj:0)
_var783_                          0.00801404090220731 	(obj:0)
_var786_                            0.390993629908997 	(obj:0)
_var787_                            0.313381889734454 	(obj:0)
_var788_                           0.0768851704717047 	(obj:0)
_var789_                           0.0190753197221863 	(obj:0)
_var792_                            0.323784786386788 	(obj:0)
_var793_                             0.14286491934675 	(obj:0)
_var794_                             0.12525935616069 	(obj:0)
_var797_                            0.164840787835346 	(obj:0)
_var798_                            0.225708763588082 	(obj:0)
_var799_                            0.238442642536304 	(obj:0)
_var800_                           0.0322194698906151 	(obj:0)
_var801_                           0.0699145707594662 	(obj:0)
_var802_                            0.278429761395201 	(obj:0)
_var803_                            0.114644447844269 	(obj:0)
_var804_                            0.129768328551618 	(obj:0)
_var805_                            0.115856352356515 	(obj:0)
_var806_                            0.268159801786284 	(obj:0)
_var809_                            0.148661432843583 	(obj:0)
_var812_                           0.0514053794808214 	(obj:0)
_var815_                            0.267090002389427 	(obj:0)
_var816_                          0.00921333931549714 	(obj:0)
_var817_                            0.108796363942661 	(obj:0)
_var820_                            0.128564446102343 	(obj:0)
_var823_                           0.0707374052178948 	(obj:0)
_var825_                          0.00424997435804958 	(obj:0)
_var826_                           0.0107421153148689 	(obj:0)
_var828_                           0.0270091399947379 	(obj:0)
_var831_                          0.00119929841329225 	(obj:0)
